NAME /Users/henri/Research/solvers/instances/idol-instances/robust/collection/cbp_Subramanyam_et_al_2020/CapBud_N20_16/models/uncertain_technology_matrix/
ROWS
 N  OBJ
 L  capacity
 L  c_3185
 L  c_3186
 L  c_3187
 L  c_3188
 L  c_3189
 L  c_3190
 L  c_3191
 L  c_3192
 L  c_3193
 L  c_3194
 L  c_3195
 L  c_3196
 L  c_3197
 L  c_3198
 L  c_3199
 L  c_3200
 L  c_3201
 L  c_3202
 L  c_3203
 L  c_3204
COLUMNS
    MARKER    'MARKER'                 'INTORG'
    x_0        OBJ        -7.33429
    x_0        c_3185     1
    x_0        capacity   1.46686
    x_1        OBJ        -3.87461
    x_1        c_3186     1
    x_1        capacity   0.774922
    x_2        OBJ        -5.82953
    x_2        c_3187     1
    x_2        capacity   1.16591
    x_3        OBJ        -9.3554
    x_3        c_3188     1
    x_3        capacity   1.87108
    x_4        OBJ        -6.67239
    x_4        c_3189     1
    x_4        capacity   1.33448
    x_5        OBJ        -2.95906
    x_5        c_3190     1
    x_5        capacity   0.591812
    x_6        OBJ        -5.32022
    x_6        c_3191     1
    x_6        capacity   1.06404
    x_7        OBJ        -9.69601
    x_7        c_3192     1
    x_7        capacity   1.9392
    x_8        OBJ        -2.80132
    x_8        c_3193     1
    x_8        capacity   0.560265
    x_9        OBJ        -7.6707
    x_9        c_3194     1
    x_9        capacity   1.53414
    x_10       OBJ        -8.4223
    x_10       c_3195     1
    x_10       capacity   1.68446
    x_11       OBJ        -5.29353
    x_11       c_3196     1
    x_11       capacity   1.05871
    x_12       OBJ        -0.21191
    x_12       c_3197     1
    x_12       capacity   0.042382
    x_13       OBJ        -9.48043
    x_13       c_3198     1
    x_13       capacity   1.89609
    x_14       OBJ        -6.78448
    x_14       c_3199     1
    x_14       capacity   1.3569
    x_15       OBJ        -7.96506
    x_15       c_3200     1
    x_15       capacity   1.59301
    x_16       OBJ        -7.74079
    x_16       c_3201     1
    x_16       capacity   1.54816
    x_17       OBJ        -7.05722
    x_17       c_3202     1
    x_17       capacity   1.41144
    x_18       OBJ        -5.04723
    x_18       c_3203     1
    x_18       capacity   1.00945
    x_19       OBJ        -0.543877
    x_19       c_3204     1
    x_19       capacity   0.108775
    y_0        OBJ        -5.86743
    y_0        c_3185     1
    y_0        capacity   1.46686
    y_1        OBJ        -3.09969
    y_1        c_3186     1
    y_1        capacity   0.774922
    y_2        OBJ        -4.66362
    y_2        c_3187     1
    y_2        capacity   1.16591
    y_3        OBJ        -7.48432
    y_3        c_3188     1
    y_3        capacity   1.87108
    y_4        OBJ        -5.33791
    y_4        c_3189     1
    y_4        capacity   1.33448
    y_5        OBJ        -2.36725
    y_5        c_3190     1
    y_5        capacity   0.591812
    y_6        OBJ        -4.25617
    y_6        c_3191     1
    y_6        capacity   1.06404
    y_7        OBJ        -7.75681
    y_7        c_3192     1
    y_7        capacity   1.9392
    y_8        OBJ        -2.24106
    y_8        c_3193     1
    y_8        capacity   0.560265
    y_9        OBJ        -6.13656
    y_9        c_3194     1
    y_9        capacity   1.53414
    y_10       OBJ        -6.73784
    y_10       c_3195     1
    y_10       capacity   1.68446
    y_11       OBJ        -4.23482
    y_11       c_3196     1
    y_11       capacity   1.05871
    y_12       OBJ        -0.169528
    y_12       c_3197     1
    y_12       capacity   0.042382
    y_13       OBJ        -7.58434
    y_13       c_3198     1
    y_13       capacity   1.89609
    y_14       OBJ        -5.42759
    y_14       c_3199     1
    y_14       capacity   1.3569
    y_15       OBJ        -6.37205
    y_15       c_3200     1
    y_15       capacity   1.59301
    y_16       OBJ        -6.19263
    y_16       c_3201     1
    y_16       capacity   1.54816
    y_17       OBJ        -5.64577
    y_17       c_3202     1
    y_17       capacity   1.41144
    y_18       OBJ        -4.03778
    y_18       c_3203     1
    y_18       capacity   1.00945
    y_19       OBJ        -0.435101
    y_19       c_3204     1
    y_19       capacity   0.108775
    MARKER    'MARKER'                 'INTEND'
RHS
    RHS       capacity   60.0302
    RHS       c_3185     1
    RHS       c_3186     1
    RHS       c_3187     1
    RHS       c_3188     1
    RHS       c_3189     1
    RHS       c_3190     1
    RHS       c_3191     1
    RHS       c_3192     1
    RHS       c_3193     1
    RHS       c_3194     1
    RHS       c_3195     1
    RHS       c_3196     1
    RHS       c_3197     1
    RHS       c_3198     1
    RHS       c_3199     1
    RHS       c_3200     1
    RHS       c_3201     1
    RHS       c_3202     1
    RHS       c_3203     1
    RHS       c_3204     1
BOUNDS
 LI BND       x_0        0
 UI BND       x_0        1
 LI BND       x_1        0
 UI BND       x_1        1
 LI BND       x_2        0
 UI BND       x_2        1
 LI BND       x_3        0
 UI BND       x_3        1
 LI BND       x_4        0
 UI BND       x_4        1
 LI BND       x_5        0
 UI BND       x_5        1
 LI BND       x_6        0
 UI BND       x_6        1
 LI BND       x_7        0
 UI BND       x_7        1
 LI BND       x_8        0
 UI BND       x_8        1
 LI BND       x_9        0
 UI BND       x_9        1
 LI BND       x_10       0
 UI BND       x_10       1
 LI BND       x_11       0
 UI BND       x_11       1
 LI BND       x_12       0
 UI BND       x_12       1
 LI BND       x_13       0
 UI BND       x_13       1
 LI BND       x_14       0
 UI BND       x_14       1
 LI BND       x_15       0
 UI BND       x_15       1
 LI BND       x_16       0
 UI BND       x_16       1
 LI BND       x_17       0
 UI BND       x_17       1
 LI BND       x_18       0
 UI BND       x_18       1
 LI BND       x_19       0
 UI BND       x_19       1
 LI BND       y_0        0
 UI BND       y_0        1
 LI BND       y_1        0
 UI BND       y_1        1
 LI BND       y_2        0
 UI BND       y_2        1
 LI BND       y_3        0
 UI BND       y_3        1
 LI BND       y_4        0
 UI BND       y_4        1
 LI BND       y_5        0
 UI BND       y_5        1
 LI BND       y_6        0
 UI BND       y_6        1
 LI BND       y_7        0
 UI BND       y_7        1
 LI BND       y_8        0
 UI BND       y_8        1
 LI BND       y_9        0
 UI BND       y_9        1
 LI BND       y_10       0
 UI BND       y_10       1
 LI BND       y_11       0
 UI BND       y_11       1
 LI BND       y_12       0
 UI BND       y_12       1
 LI BND       y_13       0
 UI BND       y_13       1
 LI BND       y_14       0
 UI BND       y_14       1
 LI BND       y_15       0
 UI BND       y_15       1
 LI BND       y_16       0
 UI BND       y_16       1
 LI BND       y_17       0
 UI BND       y_17       1
 LI BND       y_18       0
 UI BND       y_18       1
 LI BND       y_19       0
 UI BND       y_19       1
ENDATA
